NAME          DCAP_2_4_3_500_SS191
ROWS
 N  OBJ
 L  CON1
 L  CON2
 L  CON3
 L  CON4
 L  CON5
 L  CON6
 L  CON7
 L  CON8
 L  CON9
 L  CON10
 L  CON11
 L  CON12
 E  CON13
 E  CON14
 E  CON15
 E  CON16
 E  CON17
 E  CON18
 E  CON19
 E  CON20
 E  CON21
 E  CON22
 E  CON23
 E  CON24
COLUMNS
    x[1,1]    OBJ       6.180167      CON1      1.000000    
    x[1,1]    CON7      -1.000000     CON8      -1.000000   
    x[1,1]    CON9      -1.000000   
    x[1,2]    OBJ       6.563535      CON2      1.000000    
    x[1,2]    CON8      -1.000000     CON9      -1.000000   
    x[1,3]    OBJ       7.443064      CON3      1.000000    
    x[1,3]    CON9      -1.000000   
    x[2,1]    OBJ       6.732585      CON4      1.000000    
    x[2,1]    CON10     -1.000000     CON11     -1.000000   
    x[2,1]    CON12     -1.000000   
    x[2,2]    OBJ       5.039546      CON5      1.000000    
    x[2,2]    CON11     -1.000000     CON12     -1.000000   
    x[2,3]    OBJ       6.054841      CON6      1.000000    
    x[2,3]    CON12     -1.000000   
    MARKER    'MARKER'                'INTORG'
    u[1,1]    OBJ       48.076654     CON1      -1.000000   
    u[1,2]    OBJ       20.066487     CON2      -1.000000   
    u[1,3]    OBJ       32.230043     CON3      -1.000000   
    u[2,1]    OBJ       49.996186     CON4      -1.000000   
    u[2,2]    OBJ       49.466655     CON5      -1.000000   
    u[2,3]    OBJ       27.484319     CON6      -1.000000   
    y[1,1,1]  OBJ       8.805538      CON7      1.473399    
    y[1,1,1]  CON13     1.000000    
    y[1,1,2]  OBJ       7.593718      CON8      1.136337    
    y[1,1,2]  CON14     1.000000    
    y[1,1,3]  OBJ       7.345429      CON9      0.607271    
    y[1,1,3]  CON15     1.000000    
    y[1,2,1]  OBJ       5.022643      CON7      0.779620    
    y[1,2,1]  CON16     1.000000    
    y[1,2,2]  OBJ       7.830400      CON8      1.481792    
    y[1,2,2]  CON17     1.000000    
    y[1,2,3]  OBJ       9.178883      CON9      1.339173    
    y[1,2,3]  CON18     1.000000    
    y[1,3,1]  OBJ       8.748688      CON7      1.287693    
    y[1,3,1]  CON19     1.000000    
    y[1,3,2]  OBJ       6.686945      CON8      0.667943    
    y[1,3,2]  CON20     1.000000    
    y[1,3,3]  OBJ       9.476370      CON9      1.034996    
    y[1,3,3]  CON21     1.000000    
    y[1,4,1]  OBJ       7.406186      CON7      0.593775    
    y[1,4,1]  CON22     1.000000    
    y[1,4,2]  OBJ       7.509245      CON8      0.612931    
    y[1,4,2]  CON23     1.000000    
    y[1,4,3]  OBJ       9.531997      CON9      0.771606    
    y[1,4,3]  CON24     1.000000    
    y[2,1,1]  OBJ       8.642163      CON10     1.473399    
    y[2,1,1]  CON13     1.000000    
    y[2,1,2]  OBJ       5.534336      CON11     1.136337    
    y[2,1,2]  CON14     1.000000    
    y[2,1,3]  OBJ       9.973826      CON12     0.607271    
    y[2,1,3]  CON15     1.000000    
    y[2,2,1]  OBJ       7.418629      CON10     0.779620    
    y[2,2,1]  CON16     1.000000    
    y[2,2,2]  OBJ       7.837562      CON11     1.481792    
    y[2,2,2]  CON17     1.000000    
    y[2,2,3]  OBJ       9.538691      CON12     1.339173    
    y[2,2,3]  CON18     1.000000    
    y[2,3,1]  OBJ       5.255908      CON10     1.287693    
    y[2,3,1]  CON19     1.000000    
    y[2,3,2]  OBJ       9.617296      CON11     0.667943    
    y[2,3,2]  CON20     1.000000    
    y[2,3,3]  OBJ       5.752612      CON12     1.034996    
    y[2,3,3]  CON21     1.000000    
    y[2,4,1]  OBJ       9.165698      CON10     0.593775    
    y[2,4,1]  CON22     1.000000    
    y[2,4,2]  OBJ       6.899688      CON11     0.612931    
    y[2,4,2]  CON23     1.000000    
    y[2,4,3]  OBJ       9.786224      CON12     0.771606    
    y[2,4,3]  CON24     1.000000    
    z[1,1]    OBJ       908.479094    CON13     1.000000    
    z[1,2]    OBJ       724.220700    CON14     1.000000    
    z[1,3]    OBJ       775.331919    CON15     1.000000    
    z[2,1]    OBJ       646.946165    CON16     1.000000    
    z[2,2]    OBJ       605.623889    CON17     1.000000    
    z[2,3]    OBJ       588.488536    CON18     1.000000    
    z[3,1]    OBJ       988.552089    CON19     1.000000    
    z[3,2]    OBJ       813.086725    CON20     1.000000    
    z[3,3]    OBJ       879.198083    CON21     1.000000    
    z[4,1]    OBJ       908.981864    CON22     1.000000    
    z[4,2]    OBJ       770.735874    CON23     1.000000    
    z[4,3]    OBJ       673.387623    CON24     1.000000    
    MARKER    'MARKER'                 'INTEND'
RHS
    RHS       CON1      -0.000000     CON2      -0.000000   
    RHS       CON3      -0.000000     CON4      -0.000000   
    RHS       CON5      -0.000000     CON6      -0.000000   
    RHS       CON7      -0.000000     CON8      -0.000000   
    RHS       CON9      -0.000000     CON10     -0.000000   
    RHS       CON11     -0.000000     CON12     -0.000000   
    RHS       CON13     1.000000      CON14     1.000000    
    RHS       CON15     1.000000      CON16     1.000000    
    RHS       CON17     1.000000      CON18     1.000000    
    RHS       CON19     1.000000      CON20     1.000000    
    RHS       CON21     1.000000      CON22     1.000000    
    RHS       CON23     1.000000      CON24     1.000000    
BOUNDS
 BV BOUND     u[1,1]  
 BV BOUND     u[1,2]  
 BV BOUND     u[1,3]  
 BV BOUND     u[2,1]  
 BV BOUND     u[2,2]  
 BV BOUND     u[2,3]  
 BV BOUND     y[1,1,1]
 BV BOUND     y[1,1,2]
 BV BOUND     y[1,1,3]
 BV BOUND     y[1,2,1]
 BV BOUND     y[1,2,2]
 BV BOUND     y[1,2,3]
 BV BOUND     y[1,3,1]
 BV BOUND     y[1,3,2]
 BV BOUND     y[1,3,3]
 BV BOUND     y[1,4,1]
 BV BOUND     y[1,4,2]
 BV BOUND     y[1,4,3]
 BV BOUND     y[2,1,1]
 BV BOUND     y[2,1,2]
 BV BOUND     y[2,1,3]
 BV BOUND     y[2,2,1]
 BV BOUND     y[2,2,2]
 BV BOUND     y[2,2,3]
 BV BOUND     y[2,3,1]
 BV BOUND     y[2,3,2]
 BV BOUND     y[2,3,3]
 BV BOUND     y[2,4,1]
 BV BOUND     y[2,4,2]
 BV BOUND     y[2,4,3]
 BV BOUND     z[1,1]  
 BV BOUND     z[1,2]  
 BV BOUND     z[1,3]  
 BV BOUND     z[2,1]  
 BV BOUND     z[2,2]  
 BV BOUND     z[2,3]  
 BV BOUND     z[3,1]  
 BV BOUND     z[3,2]  
 BV BOUND     z[3,3]  
 BV BOUND     z[4,1]  
 BV BOUND     z[4,2]  
 BV BOUND     z[4,3]  
ENDATA
